p cnf 43 147
-2 3 -4 0
2 -3 -4 0
-2 -3 4 0
2 3 4 0
-5 -1 0
-5 4 0
1 -4 5 0
3 -6 -7 0
-3 6 -7 0
3 6 7 0
-3 -6 7 0
9 8 0
9 6 0
-8 -6 -9 0
10 -7 0
10 -9 0
7 9 -10 0
11 -9 -12 0
-11 9 -12 0
11 9 12 0
-11 -9 12 0
-13 -12 0
-13 2 0
12 -2 13 0
-10 -13 -14 0
10 13 -14 0
-10 13 14 0
10 -13 14 0
5 -14 -15 0
-5 14 -15 0
5 14 15 0
-5 -14 15 0
16 3 0
16 -12 0
-3 12 -16 0
8 -6 -17 0
-8 6 -17 0
8 6 17 0
-8 -6 17 0
18 2 0
18 17 0
-2 -17 -18 0
-19 16 0
-19 -18 0
-16 18 19 0
-3 -21 -22 0
3 21 -22 0
-3 21 22 0
3 -21 22 0
-23 -20 0
-23 22 0
20 -22 23 0
-24 -7 0
-24 -23 0
7 23 24 0
25 10 0
25 23 0
-10 -23 -25 0
-26 -24 0
-26 25 0
24 -25 26 0
27 -19 0
27 -26 0
19 26 -27 0
-29 28 0
-29 2 0
-28 -2 29 0
-30 -29 0
-30 -7 0
29 7 30 0
27 30 -31 0
-27 -30 -31 0
27 -30 31 0
-27 30 31 0
32 11 0
32 8 0
-11 -8 -32 0
33 31 0
33 -32 0
-31 32 -33 0
34 -23 0
34 -9 0
23 9 -34 0
-35 34 0
-35 -10 0
-34 10 35 0
9 8 -36 0
-9 -8 -36 0
9 -8 36 0
-9 8 36 0
-37 -20 -38 0
37 20 -38 0
-37 20 38 0
37 -20 38 0
39 7 0
39 38 0
-7 -38 -39 0
-40 36 0
-40 39 0
-36 -39 40 0
-35 40 -41 0
35 -40 -41 0
-35 -40 41 0
35 40 41 0
33 41 -42 0
-33 -41 -42 0
33 -41 42 0
-33 41 42 0
15 -42 -43 0
-15 42 -43 0
15 42 43 0
-15 -42 43 0
-29 -35 11 0
41 -6 0
6 -39 27 0
31 -38 -37 0
-3 -11 33 0
21 -25 -4 27 0
32 -24 29 0
-23 -5 -22 -1 6 0
-14 12 0
-16 -25 -37 -24 33 -21 0
-37 -10 0
39 -29 -37 35 -22 0
-1 33 21 0
-19 33 -7 -9 20 22 0
-14 43 -28 23 -21 0
6 22 -14 0
40 -43 30 19 1 27 0
24 -35 38 42 -6 27 0
1 -12 -2 0
34 2 -5 33 0
43 20 37 6 0
-21 17 -37 -35 0
-7 -16 -10 30 0
-31 -38 21 26 -37 0
11 -14 16 0
-34 -38 -10 -43 33 -17 0
-40 26 7 39 15 43 0
-4 33 -29 0
43 34 29 12 -8 0
-40 -11 -6 0
-19 25 -23 0
13 16 26 -27 0
28 20 0
-38 -4 -31 23 8 -21 0
43 0
